************************************************************************
file with basedata            : mm54_.bas
initial value random generator: 22305860
************************************************************************
projects                      :  1
jobs (incl. supersource/sink ):  12
horizon                       :  81
RESOURCES
  - renewable                 :  2   R
  - nonrenewable              :  2   N
  - doubly constrained        :  0   D
************************************************************************
PROJECT INFORMATION:
pronr.  #jobs rel.date duedate tardcost  MPM-Time
    1     10      0       20        5       20
************************************************************************
PRECEDENCE RELATIONS:
jobnr.    #modes  #successors   successors
   1        1          3           2   3   4
   2        3          2           6   7
   3        3          3           5   7   9
   4        3          2           6  11
   5        3          1          10
   6        3          2           8   9
   7        3          1           8
   8        3          1          10
   9        3          1          12
  10        3          1          12
  11        3          1          12
  12        1          0        
************************************************************************
REQUESTS/DURATIONS:
jobnr. mode duration  R 1  R 2  N 1  N 2
------------------------------------------------------------------------
  1      1     0       0    0    0    0
  2      1     4       9    8    5    5
         2     6       8    7    4    2
         3     9       5    7    4    1
  3      1     7       7    3   10    8
         2     7       8    3    9    9
         3     9       6    2    8    3
  4      1     3      10    6    8    8
         2     4       8    3    6    7
         3     7       7    2    1    5
  5      1     6       8    5    5    9
         2     7       8    4    5    8
         3    10       7    3    5    6
  6      1     2       8    4   10    6
         2     2       8    4    9    7
         3     6       6    4    8    4
  7      1     3       3    7    5    6
         2     5       3    6    3    4
         3     9       2    4    2    2
  8      1     8       3    9    5    5
         2     8       3   10    4    5
         3     8       4    6    4    5
  9      1     4       8    6    4    9
         2     5       5    4    3    6
         3     7       3    2    2    2
 10      1     2       8    7    9   10
         2     3       7    5    9   10
         3     8       4    3    6   10
 11      1     2       4    5    8    7
         2     2       4    6    7    6
         3     8       4    2    3    6
 12      1     0       0    0    0    0
************************************************************************
RESOURCEAVAILABILITIES:
  R 1  R 2  N 1  N 2
   21   17   56   60
************************************************************************
MAXIMAL LAGS:
from  to  type  delay
    1   12   ES      0
    1    2   ES      0
    2   12   ES      0
    1    3   ES      0
    3   12   ES      0
    1    4   ES      0
    4   12   ES      0
    1    5   ES      0
    5   12   ES      0
    1    6   ES      0
    6   12   ES      0
    1    7   ES      0
    7   12   ES      0
    1    8   ES      0
    8   12   ES      0
    1    9   ES      0
    9   12   ES      0
    1   10   ES      0
   10   12   ES      0
    1   11   ES      0
   11   12   ES      0
    1   12   ES      0
    2    6   SS     -9
    2    6   SE      5
    2    6   ES     -7
    2    6   EE     -8
    2    7   SS     -7
    2    7   SE      1
    2    7   ES     -9
    2    7   EE      5
    3    5   SS      7
    3    5   SE      1
    3    5   ES     -7
    3    5   EE      5
    3    7   SS      5
    3    7   SE      8
    3    7   ES      3
    3    7   EE     10
    3    9   SS     -4
    3    9   SE     10
    3    9   ES     -5
    3    9   EE     -9
    4    6   SS      9
    4    6   SE     -8
    4    6   ES      2
    4    6   EE     -9
    4   11   SS     12
    4   11   SE    -11
    4   11   ES     -8
    4   11   EE      0
    5   10   SS      3
    5   10   SE      0
    5   10   ES      3
    5   10   EE     -7
    6    8   SS     12
    6    8   SE    -12
    6    8   ES      6
    6    8   EE     10
    6    9   SS     -1
    6    9   SE      2
    6    9   ES      6
    6    9   EE      6
    7    8   SS     -7
    7    8   SE      2
    7    8   ES    -12
    7    8   EE      3
    8   10   SS      9
    8   10   SE      6
    8   10   ES     -1
    8   10   EE     -2
************************************************************************
